754112076598296807505,13,1,2,01,12,1,2,09,13,1,2,03,8,1,2,012,4,1,2,02,5,1,2,010,10,1,2,01,5,1,2,02,11,1,2,06,4,1,2,08,3,1,2,04,2,1,2,011,2,1,2,04,7,1,2,06,4,1,2,010,11,1,2,08,14,1,2,015,14,1,2,05,13,1,2,05,14,1,2,010,11,1,2,06,14,1,2,011,1,1,2,015,12,1,2,02,9,1,2,05,3,1,2,02,5,1,2,010,15,1,2,01,2,1,2,015,7,1,2,011,4,1,2,012,11,1,2,07,1,1,2,05,2,1,2,013,5,1,2,07,11,1,2,012,5,1,2,03,11,1,2,06,4,1,2,04,14,1,2,05,3,1,2,012,15,1,2,012,7,1,2,010,5,1,2,05,14,1,2,010,3,1,2,010,14,1,2,015,3,1,2,011,6,1,2,01,2,1,2,0